\ This file has been generated by DOcplex
\ ENCODING=ISO-8859-1
\Problem name: random_problem.lp

Minimize
 obj: - 392 x0 - 196 x1 - 98 x2 + 1124 x3 + 562 x4 + 281 x5 - 508 x6 - 254 x7
      - 127 x8 + 180 x9 + 90 x10 + 45 x11 + [ 2752 x0^2 + 2752 x0*x1
      + 1376 x0*x2 + 2944 x0*x3 + 1472 x0*x4 + 736 x0*x5 + 1792 x0*x6
      + 896 x0*x7 + 448 x0*x8 + 1536 x0*x9 + 768 x0*x10 + 384 x0*x11 + 688 x1^2
      + 688 x1*x2 + 1472 x1*x3 + 736 x1*x4 + 368 x1*x5 + 896 x1*x6 + 448 x1*x7
      + 224 x1*x8 + 768 x1*x9 + 384 x1*x10 + 192 x1*x11 + 172 x2^2 + 736 x2*x3
      + 368 x2*x4 + 184 x2*x5 + 448 x2*x6 + 224 x2*x7 + 112 x2*x8 + 384 x2*x9
      + 192 x2*x10 + 96 x2*x11 + 4864 x3^2 + 4864 x3*x4 + 2432 x3*x5
      + 2560 x3*x6 + 1280 x3*x7 + 640 x3*x8 + 3200 x3*x9 + 1600 x3*x10
      + 800 x3*x11 + 1216 x4^2 + 1216 x4*x5 + 1280 x4*x6 + 640 x4*x7 + 320 x4*x8
      + 1600 x4*x9 + 800 x4*x10 + 400 x4*x11 + 304 x5^2 + 640 x5*x6 + 320 x5*x7
      + 160 x5*x8 + 800 x5*x9 + 400 x5*x10 + 200 x5*x11 + 1408 x6^2 + 1408 x6*x7
      + 704 x6*x8 + 5632 x6*x9 + 2816 x6*x10 + 1408 x6*x11 + 352 x7^2
      + 352 x7*x8 + 2816 x7*x9 + 1408 x7*x10 + 704 x7*x11 + 88 x8^2 + 1408 x8*x9
      + 704 x8*x10 + 352 x8*x11 + 20224 x9^2 + 20224 x9*x10 + 10112 x9*x11
      + 5056 x10^2 + 5056 x10*x11 + 1264 x11^2 ]/2
Subject To
 c0: 4 x0 + 2 x1 + x2 + 4 x3 + 2 x4 + x5 + 4 x6 + 2 x7 + x8 + 4 x9 + 2 x10 + x11
      = 7

Bounds
 0 <= x0 <= 1
 0 <= x1 <= 1
 0 <= x2 <= 1
 0 <= x3 <= 1
 0 <= x4 <= 1
 0 <= x5 <= 1
 0 <= x6 <= 1
 0 <= x7 <= 1
 0 <= x8 <= 1
 0 <= x9 <= 1
 0 <= x10 <= 1
 0 <= x11 <= 1

Binaries
 x0 x1 x2 x3 x4 x5 x6 x7 x8 x9 x10 x11
End
